Route #1: 1 34 64 40 44 42 53 46 4 35 1 
Route #2: 1 49 19 11 65 18 22 55 63 16 36 1 
Route #3: 1 14 38 43 33 41 29 8 20 1 
Route #4: 1 1 6 66 12 31 37 32 50 1 
Route #5: 1 7 27 47 2 51 59 1 
Route #6: 1 17 10 26 58 21 25 1 
Route #7: 1 13 56 52 45 23 24 1 
Route #8: 1 39 60 3 57 62 9 1 
Route #9: 1 28 15 54 5 48 61 1 
Route #10: 1 30 1 

Cost 1931.77
Time 0.6941


 * Another infos *

 Iterations: 67 Time: 0.6941 sec - 0.0116 min - 0.0002 horas
0.0000 h 0.0116 min
Problem dimension: 67
